p edge 30 48
e 1 2
e 1 3
e 1 4
e 1 21
e 1 23
e 2 6
e 2 10
e 2 11
e 2 23
e 3 4
e 3 6
e 3 7
e 3 9
e 3 22
e 3 27
e 4 5
e 4 12
e 4 15
e 5 6
e 5 12
e 5 23
e 6 7
e 6 9
e 6 27
e 7 9
e 7 15
e 7 16
e 7 19
e 7 27
e 8 15
e 8 19
e 8 20
e 9 10
e 9 27
e 10 11
e 10 27
e 11 16
e 12 15
e 13 17
e 13 21
e 14 26
e 15 20
e 16 28
e 18 30
e 19 28
e 20 24
e 22 24
e 25 29
